8419
3291
3713
6469
3313
9211
5606
2136
8772
8271
7827
7924
964
6892
8066
3631
567
3874
5549
8798
7621
2856
572
8663
8582
7016
6860
1375
6487
2014
1311
508
7272
7949
2357
9691
2162
9825
4799
4075
1362
4262
8454
8770
7533
2772
6683
2600
5487
2286
6137
